(set-logic HORN)
(declare-fun state (Int Int Int (Array Int Int) Int Int Int (Array Int Int) Int Int Int Int Int (Array Int Int) Bool Bool Int) Bool)
(assert (forall ((|H| Int) (|A_0| Int) (|B_0| Int) (|.y.17| (Array Int Int)) (|C_0| Int) (|I| Int) (|.y.18| Int) (|G_0| (Array Int Int)) (|J| Int) (|D_0| Int) (|E_0| Int) (|F_0| Int) (|L| Int) (|K| (Array Int Int)) (|.loc.19| Bool) (|.loc.20| Bool) (|A| Int) (|.loc.35| Bool) (|.loc.36| Bool) (|.y.34| (Array Int Int)) (|.y.32| Int) (|.y.31| Int) (|.y.30| Int) (|.y.29| Int) (|.y.28| (Array Int Int)) (|.y.25| Int) (|.y.23| Int) (|.y.22| Int) (|.y.21| Int) (|.y.26| Int) (|.y.33| Int) (|.y.27| Int) (|.y.24| (Array Int Int)) (|.xiv.1| Int)) (=> (and (and (not .loc.20) (not .loc.19)) (and (and (and (and (and (= C_0 0) (= H 0)) (= (select .y.17 A) (select G_0 A))) (not (<= A_0 0))) (= B_0 .y.18)) (= A_0 I))) (state |H| |A_0| |B_0| |.y.17| |C_0| |I| |.y.18| |G_0| |J| |D_0| |E_0| |F_0| |L| |K| |.loc.19| |.loc.20| |A|))))
(assert (forall ((|H| Int) (|A_0| Int) (|B_0| Int) (|.y.17| (Array Int Int)) (|C_0| Int) (|I| Int) (|.y.18| Int) (|G_0| (Array Int Int)) (|J| Int) (|D_0| Int) (|E_0| Int) (|F_0| Int) (|L| Int) (|K| (Array Int Int)) (|.loc.19| Bool) (|.loc.20| Bool) (|A| Int) (|.loc.35| Bool) (|.loc.36| Bool) (|.y.34| (Array Int Int)) (|.y.32| Int) (|.y.31| Int) (|.y.30| Int) (|.y.29| Int) (|.y.28| (Array Int Int)) (|.y.25| Int) (|.y.23| Int) (|.y.22| Int) (|.y.21| Int) (|.y.26| Int) (|.y.33| Int) (|.y.27| Int) (|.y.24| (Array Int Int)) (|.xiv.1| Int)) (=> (and (state |H| |A_0| |B_0| |.y.17| |C_0| |I| |.y.18| |G_0| |J| |D_0| |E_0| |F_0| |L| |K| |.loc.19| |.loc.20| |A|) (let ((.def_28 (not .loc.19))) (let ((.def_46 (= I 0))) (let ((.def_47 (not .def_46))) (let ((.def_48 (select K L))) (let ((.def_49 (= J .def_48))) (let ((.def_50 (not .def_49))) (let ((.def_51 (= .def_48 0))) (let ((.def_52 (and .def_50 .def_51))) (let ((.def_56 (select G_0 I))) (let ((.def_57 (= H .def_56))) (let ((.def_59 (not .def_57))) (let ((.def_61 (= .def_56 0))) (let ((.def_74 (not .loc.35))) (let ((.def_76 (and .def_74 .loc.36))) (let ((.def_79 (not .def_51))) (let ((.def_82 (not .loc.36))) (let ((.def_85 (= K .y.34))) (let ((.def_88 (= F_0 .y.32))) (let ((.def_91 (= E_0 .y.31))) (let ((.def_94 (= D_0 .y.30))) (let ((.def_97 (= J .y.29))) (let ((.def_100 (= G_0 .y.28))) (let ((.def_103 (= C_0 .y.25))) (let ((.def_106 (= B_0 .y.23))) (let ((.def_109 (= A_0 .y.22))) (let ((.def_112 (= H .y.21))) (let ((.def_114 (not .def_61))) (let ((.def_121 (= (+ I (* (- 1) .y.26)) (- 1)))) (let ((.def_126 (= (+ L (* (- 1) .y.33)) (- 1)))) (let ((.def_168 (and .def_28 .def_76))) (let ((.def_169 (select .y.17 B_0))) (let ((.def_170 (= .def_169 0))) (let ((.def_171 (and .def_168 .def_170))) (let ((.def_172 (select G_0 .y.18))) (let ((.def_173 (= .def_172 0))) (let ((.def_174 (not .def_173))) (let ((.def_178 (not .def_170))) (let ((.def_228 (= K .y.28))) (let ((.def_231 (= E_0 .y.27))) (let ((.def_233 (= F_0 .y.26))) (let ((.def_236 (= G_0 .y.24))) (let ((.def_238 (= C_0 .y.22))) (let ((.def_244 (= (+ A_0 (* (- 1) .y.21)) (- 1)))) (let ((.def_250 (= (+ D_0 (* (- 1) .y.25)) (- 1)))) (and (not .loc.20) (or (or (or (or (or (or (and .loc.19 (or (or (or (and (or (or (and (or (and .def_47 .def_52) (and .def_46 .def_49)) .def_57) (and (and .def_49 .def_59) .def_61)) (and (or (not (= A_0 D_0)) (not (= G_0 K))) (and .def_57 (and .def_47 .def_49)))) .def_76) (and (and (and (and (and (and (and (and (and (and (and (and (and (and (and .loc.35 (and (and .def_50 .def_59) .def_79)) .def_82) .def_85) .def_88) .def_91) .def_94) .def_97) .def_100) .def_103) .def_106) .def_109) .def_112) .def_114) .def_121) .def_126)) (and (or .def_49 .def_51) (and (= L .y.33) (and .def_121 (and .def_114 (and .def_112 (and .def_109 (and .def_106 (and .def_103 (and .def_100 (and .def_97 (and .def_94 (and .def_91 (and .def_88 (and .def_85 (and .def_82 (and .def_59 .loc.35))))))))))))))))) (and (or .def_57 .def_61) (and (= I .y.26) (and .def_126 (and .def_112 (and .def_109 (and .def_106 (and .def_103 (and .def_100 (and .def_97 (and .def_94 (and .def_91 (and .def_88 (and .def_85 (and .def_82 (and .loc.35 (and .def_50 .def_79)))))))))))))))))) (and .def_171 .def_174)) (and (and .def_168 .def_173) .def_178)) (and (or (not (= H C_0)) (not (= .y.17 G_0))) (and .def_171 .def_173))) (and (= (+ .y.18 (* (- 1) .y.31)) (- 1)) (and (= .y.29 .def_172) (and (= (+ B_0 (* (- 1) .y.23)) (- 1)) (and (= .y.21 .def_169) (and (= A_0 .y.26) (and (= I .y.33) (and (= H .y.22) (and (= A_0 .y.25) (and (= .y.17 .y.28) (and (= C_0 .y.30) (and (= I .y.32) (and (= G_0 .y.34) (and .def_178 (and .def_174 (and .def_28 (and .loc.35 .def_82))))))))))))))))) (and (and (and (and (and (and (and (and .def_106 (and .def_82 (and .def_74 (and .loc.19 (and .def_57 (and .def_46 .def_52)))))) .def_228) .def_231) .def_233) .def_236) .def_238) .def_244) .def_250)) (and .def_250 (and .def_244 (and .def_238 (and .def_236 (and .def_233 (and .def_231 (and .def_228 (and .def_106 (and .def_82 (and .def_61 (and .def_74 (and .loc.19 (and .def_52 .def_59)))))))))))))))))))))))))))))))))))))))))))))))))))))))))))) (state |.y.21| |.y.22| |.y.23| |.y.24| |.y.25| |.y.26| |.y.27| |.y.28| |.y.29| |.y.30| |.y.31| |.y.32| |.y.33| |.y.34| |.loc.35| |.loc.36| |.xiv.1|))))
(assert (forall ((|H| Int) (|A_0| Int) (|B_0| Int) (|.y.17| (Array Int Int)) (|C_0| Int) (|I| Int) (|.y.18| Int) (|G_0| (Array Int Int)) (|J| Int) (|D_0| Int) (|E_0| Int) (|F_0| Int) (|L| Int) (|K| (Array Int Int)) (|.loc.19| Bool) (|.loc.20| Bool) (|A| Int) (|.loc.35| Bool) (|.loc.36| Bool) (|.y.34| (Array Int Int)) (|.y.32| Int) (|.y.31| Int) (|.y.30| Int) (|.y.29| Int) (|.y.28| (Array Int Int)) (|.y.25| Int) (|.y.23| Int) (|.y.22| Int) (|.y.21| Int) (|.y.26| Int) (|.y.33| Int) (|.y.27| Int) (|.y.24| (Array Int Int)) (|.xiv.1| Int)) (=> (state |H| |A_0| |B_0| |.y.17| |C_0| |I| |.y.18| |G_0| |J| |D_0| |E_0| |F_0| |L| |K| |.loc.19| |.loc.20| |A|) (not (and .loc.20 (not .loc.19))))))
(check-sat)
